c CPU1	1
c CPU2	2
c RAM1	3
c RAM2	4
c MB1	5
c MB2	6
c PG1	7
c PG2	8
c PG3	9
c MON1	10
c MON2	11
c MON3	12

p cnf 12 16
-2 -1 0
1 2 0
-4 -3 0
3 4 0
-6 -5 0
5 6 0
7 8 9 0
-7 -8 0
-7 -9 0
-8 -9 0
-5 -7 3 0
-7 4 1 0
-2 6 0
-10 7 0
-10 4 0
-11 -9 4 0
